10308
1 1 1 0 0 1 1 1 0 1 1 1 1 0 0 1 1 1 0 1
5 19 0 12 15 0 6 11 9 9 6 6 11 1 7 2 5 9 19 0 5 19 11 15 15 6 15 11 1 7 12 19 16 12 11 2 12 11 9 7 6 10 11 1 7 0 7 11 9 7 11 0 15 12 16 5 5 17 15 11 17 6 19 1 15 5 16 19 0 10 11 7 12 19 15 0 7 10 10 0 6 6 11 0 2 0 6 10 15 0 5 16 19 0 15 0 7 9 17 0